c --- [ banner ] -------------------------------------------------------------
c 
c CaDiCaL Radically Simplified CDCL SAT Solver
c Copyright (c) 2016-2021 A. Biere, M. Fleury, N. Froleyks
c 
c Version 1.5.2 a5f15211db36c3956764e18194dd5bd63bf3b5e6
c g++ (GCC) 9.3.0 -Wall -Wextra -O3 -DNDEBUG
c Fri Oct 21 01:27:37 EDT 2022 Linux gra-login3 3.10.0-1160.66.1.el7.x86_64 x86_64
c 
c --- [ limit ] --------------------------------------------------------------
c 
c setting conflict limit to 200000 conflicts (due to '200000')
c 
c --- [ parsing input ] ------------------------------------------------------
c 
c reading DIMACS file from '33.cubes5950.adj'
c opening file to read '33.cubes5950.adj'
c found 'p cnf 6160 1595475' header
c parsed 1595475 clauses in 20.17 seconds process time
c closing file '33.cubes5950.adj'
c after reading 1457566775 bytes 1390.0 MB
c 
c --- [ options ] ------------------------------------------------------------
c 
c all options are set to their default value
c 
c --- [ solving ] ------------------------------------------------------------
c 
c time measured in process time since initialization
c 
c  seconds    reductions  redundant   irredundant
c          MB     restarts       trail       variables
c            level   conflicts       glue         remaining
c 
c * 20.17 1378  0 0   0    0    0  0% 0 1595422 2376 39%
c { 20.73 1405  0 0   0    0    0  0% 0 1595422 2376 39%
c i 22.58 1462 447 0   1   52   50 27% 4 1595422 2328 38%
c i 22.81 1465 431 0   1   54   51 27% 4 1595422 2327 38%
c i 23.22 1475 402 0   2   58   54 27% 4 1595422 2312 38%
c i 26.46 1509 133 0  29  216  170 26% 12 1595422 2311 38%
c i 26.47 1510 133 0  30  217  170 26% 12 1595422 2310 38%
c i 26.52 1509 129 0  32  225  177 27% 12 1595422 2309 37%
c i 27.33 1513 122 0  40  261  211 27% 15 1595422 2308 37%
c - 32.32 1489 112 1  50  300  245 27% 16 324816 2308 37%
c i 33.09 1389 98 1  66  371  302 27% 17 324816 2307 37%
c i 33.60 1389 95 1  78  445  356 27% 17 324816 2306 37%
c i 33.66 1389 94 1  78  451  361 27% 17 324816 2305 37%
c i 35.44 1392 88 1 110  605  490 27% 21 324816 2304 37%
c i 36.68 1393 72 1 127  887  694 28% 21 324816 2303 37%
c i 36.77 1393 72 1 132  904  705 28% 21 324816 2302 37%
c i 37.56 1394 71 1 151  983  766 28% 22 324816 2301 37%
c } 37.73 1394 70 1 154 1002  784 28% 22 324816 2301 37%
c [ 37.73 1394  0 1 154 1002  784  0% 0 324816 2301 37%
c O 37.74 1394  2 1 154 1003  785 13% 2 324816 2301 37%
c 
c  seconds    reductions  redundant   irredundant
c          MB     restarts       trail       variables
c            level   conflicts       glue         remaining
c 
c i 37.99 1394 17 1 154 1095  857 30% 12 324816 2300 37%
c i 38.00 1394 17 1 154 1098  859 30% 12 324816 2299 37%
c i 38.01 1394 17 1 154 1107  863 30% 12 324816 2298 37%
c - 38.68 1515 16 2 154 1207  840 31% 12 324786 2298 37%
c i 38.94 1515 20 2 154 1408  969 31% 16 324786 2297 37%
c i 39.53 1515 22 2 155 2316 1533 31% 18 324786 2296 37%
c - 40.05 1515 22 3 155 2569 1268 31% 18 324780 2296 37%
c ] 40.56 1515 21 3 155 3003 1514 53% 18 324780 2296 37%
c { 40.56 1515 70 3 155 3003 1514 75% 22 324780 2296 37%
c F 40.70 1515 70 3 156 3004 1515 75% 22 324780 2296 37%
c i 40.94 1515 68 3 156 3036 1540 74% 22 324780 2295 37%
c i 41.13 1515 68 3 156 3058 1558 73% 22 324780 2294 37%
c i 41.27 1515 68 3 156 3090 1586 72% 22 324780 2293 37%
c i 41.33 1515 67 3 156 3122 1609 72% 22 324780 2292 37%
c i 41.42 1515 66 3 156 3157 1641 71% 21 324780 2290 37%
c i 42.05 1515 63 3 159 3295 1750 68% 21 324780 2289 37%
c i 43.05 1515 66 3 179 3365 1815 67% 23 324780 2288 37%
c i 43.78 1515 63 3 189 3513 1919 65% 22 324780 2287 37%
c i 43.81 1515 61 3 189 3568 1955 65% 22 324780 2286 37%
c i 43.89 1515 59 3 189 3641 2008 64% 22 324780 2285 37%
c 
c  seconds    reductions  redundant   irredundant
c          MB     restarts       trail       variables
c            level   conflicts       glue         remaining
c 
c i 43.91 1515 59 3 189 3672 2030 64% 22 324780 2284 37%
c i 43.92 1515 59 3 189 3678 2034 64% 22 324780 2283 37%
c i 44.33 1515 50 3 191 4204 2412 61% 21 324780 2282 37%
c i 44.34 1515 50 3 191 4211 2417 60% 21 324780 2281 37%
c i 44.80 1515 50 3 196 4289 2476 60% 21 324780 2280 37%
c i 44.86 1515 50 3 196 4299 2484 60% 21 324780 2279 37%
c i 44.87 1514 50 3 196 4302 2486 60% 21 324780 2278 37%
c - 45.97 1509 50 4 208 4383 1937 59% 21 324726 2278 37%
c i 47.57 1509 47 4 227 4844 2274 57% 20 324726 2277 37%
c d 48.48 1510 45 4 227 5001 2395 57% 20 324707 2269 37%
c 2 48.55 1510 45 4 227 5001 3900 57% 20 324707 2266 37%
c p 55.97 1509 45 4 227 5001 7293 57% 20 324707 2200 36%
c d 56.56 1509 45 4 227 5001 6965 57% 20 324499 2198 36%
c # 58.42 1509 37 4 227 6006 7693 55% 18 324499 2198 36%
c - 59.72 1365 34 5 227 6650 2799 54% 17 324499 2198 36%
c } 60.22 1365 33 5 227 7003 3003 53% 16 324499 2198 36%
c [ 60.22 1365 21 5 227 7003 3003 53% 18 324499 2198 36%
c - 62.88 1365 24 6 229 9370 3435 50% 20 324499 2198 36%
c I 63.47 1365 24 6 229 10007 3891 50% 20 324499 2198 36%
c - 68.94 1365 24 7 231 12543 3933 50% 20 324499 2198 36%
c 
c  seconds    reductions   redundant   irredundant
c          MB     restarts        trail       variables
c            level    conflicts       glue         remaining
c 
c ] 74.76 1365 22 7 232 15003 5317 50% 19 324499 2198 36%
c { 74.76 1365 33 7 232 15003 5317 53% 16 324499 2198 36%
c p 77.65 1366 33 7 232 15003 9683 53% 16 324499 2198 36%
c B 77.89 1366 33 7 232 15008 9688 53% 16 324499 2198 36%
c - 83.26 1366 32 8 327 16174 4607 51% 16 324499 2198 36%
c s 85.41 1366 27 8 341 18783 6310 50% 15 323145 2198 36%
c v 91.29 1366 27 8 341 18783 6310 50% 15 323129 2198 36%
c t 91.41 1366 27 8 341 18783 6302 50% 15 323120 2198 36%
c e 92.58 1367 27 8 341 18783 5463 50% 15 320486 837 14%
c s 92.70 1367 27 8 341 18783 5463 50% 15 320370 837 14%
c - 100.46 1367 29 9 548 20254 4943 70% 17 320370 837 14%
c W 104.67 1367 30 9 658 21009 5560 69% 17 320370 837 14%
c - 111.52 1367 29 10 843 24772 5747 71% 17 320370 837 14%
c F 121.02 1367 28 10 1055 28010 8193 71% 18 320370 837 14%
c - 127.44 1367 29 11 1205 29741 6867 71% 18 320370 837 14%
c 3 127.95 1367 29 11 1211 30003 7682 71% 18 320370 837 14%
c p 134.46 1367 29 11 1211 30003 10078 71% 18 320370 832 14%
c } 135.82 1367 28 11 1215 31003 10659 72% 18 320370 832 14%
c [ 135.82 1367 22 11 1215 31003 10659 137% 19 320370 832 14%
c - 138.35 1367 27 12 1217 35167 7585 116% 23 320356 832 14%
c 
c  seconds     reductions     redundant    irredundant
c           MB      restarts         trail        variables
c             level      conflicts        glue        remaining
c 
c B 139.12 1367 27 12 1218 36013 8167 113% 23 320356 832 14%
c - 142.15 1367 32 13 1221 41042 8020 101% 26 320356 832 14%
c W 146.08 1367 31 13 1222 45016 10549 96% 26 320356 832 14%
c - 147.28 1367 31 14 1223 47366 7697 93% 26 320356 832 14%
c p 150.58 1367 30 14 1223 50005 12126 91% 25 320356 832 14%
c s 152.38 1367 29 14 1223 53105 13854 89% 25 320175 832 14%
c v 156.88 1367 29 14 1223 53105 13854 89% 25 320155 832 14%
c w 157.05 1367 29 14 1223 53105 13816 89% 25 320155 832 14%
c t 157.06 1367 29 14 1223 53105 13813 89% 25 320155 832 14%
c s 158.43 1367 29 14 1223 53105 13812 89% 25 320019 832 14%
c - 160.53 1367 29 15 1223 54141 7934 88% 24 320019 832 14%
c O 160.87 1367 29 15 1224 55017 8433 88% 24 320019 832 14%
c - 162.96 1367 28 16 1229 61365 8275 85% 24 320019 832 14%
c ] 163.45 1367 28 16 1230 63003 9089 85% 23 320019 832 14%
c { 163.45 1367 28 16 1230 63003 9089 72% 18 320019 832 14%
c B 172.62 1367 29 16 1526 66021 11172 72% 18 320019 832 14%
c - 175.11 1367 28 17 1569 69043 9178 72% 18 320019 832 14%
c } 176.64 1367 26 17 1579 71950 10615 73% 17 320019 832 14%
c 1 176.64 1367 26 17 1579 71950 10615 73% 17 320019 832 14%
c 
c --- [ writing output ] -----------------------------------------------------
c 
c writing simplified CNF to DIMACS file 'simp/33.cubes5950.adj.simp1'
c * 176.64 1367 26 17 1579 71950 10615 73% 17 320019 832 14%
c opening file to write 'simp/33.cubes5950.adj.simp1'
c writing 'p cnf 6160 320019' header
c closing file 'simp/33.cubes5950.adj.simp1'
c after writing 149154757 bytes 142.2 MB
c wrote 320019 clauses in 1.17 seconds process time
c 
c --- [ writing extension ] --------------------------------------------------
c 
c writing extension stack to 'simp/33.cubes5950.adj.ext1'
c opening file to write 'simp/33.cubes5950.adj.ext1'
c closing file 'simp/33.cubes5950.adj.ext1'
c after writing 89583 bytes 0.1 MB
c wrote 3970 witnesses in 0.00 seconds process time
c 
c --- [ result ] -------------------------------------------------------------
c 
s SATISFIABLE
c 
c --- [ run-time profiling ] -------------------------------------------------
c 
c process time taken by individual solving procedures
c (percentage relative to process time for solving)
c 
c       120.37   76.93% search
c        84.12   53.76% unstable
c        36.10   23.07% simplify
c        33.82   21.62% stable
c        20.17   12.89% parse
c        18.98   12.13% probe
c        10.59    6.77% vivify
c         4.40    2.81% elim
c         1.87    1.19% walk
c         0.57    0.36% subsume
c         0.56    0.36% lucky
c         0.18    0.11% ternary
c   =================================
c       156.47   88.00% solve
c 
c last line shows process time for solving
c (percentage relative to total process time)
c 
c --- [ statistics ] ---------------------------------------------------------
c 
c chronological:             13337        18.54 %  of conflicts
c conflicts:                 71950       459.83    per second
c decisions:                159735      1020.86    per second
c eliminated:                 1361        22.09 %  of all variables
c fixed:                       813        13.20 %  of all variables
c learned:                   70235        97.62 %  per conflict
c learned_lits:           12247603       100.00 %  learned literals
c minimized:                     0         0.00 %  learned literals
c shrunken:                8146880        66.52 %  learned literals
c minishrunken:             763088         6.23 %  learned literals
c propagations:            6096190         0.04 M  per second
c reduced:                   35659        49.56 %  per conflict
c rephased:                     11      6540.91    interval
c restarts:                   1579        45.57    interval
c stabilizing:                   3        58.38 %  of conflicts
c substituted:                  10         0.16 %  of all variables
c subsumed:                  24985         0.73 %  of all clauses
c strengthened:               8698         0.25 %  of all clauses
c ternary:                    4213         0.82 %  of resolved
c vivified:                     89         0.00 %  of all clauses
c walked:                        2     35975.00    interval
c weakened:                   3157         3.05    average size
c 
c seconds are measured in process time for solving
c 
c --- [ resources ] ----------------------------------------------------------
c 
c total process time since initialization:       177.82    seconds
c total real time since initialization:          179.45    seconds
c maximum resident set size of process:         1665.60    MB
c 
c --- [ shutting down ] ------------------------------------------------------
c 
c exit 10
WARNING! DIMACS header mismatch: wrong number of variables.
============================[ Problem Statistics ]=============================
|                                                                             |
|  Number of variables:          5740                                         |
|  Number of clauses:          320021                                         |
|  Parse time:                   2.08 s                                       |
|  Simplification time:          0.06 s                                       |
|                                                                             |
============================[ Search Statistics ]====================================================
| Conflicts |          ORIGINAL         |          LEARNT          | Num Sols |      SUBGRAPHS      |
|           |    Vars  Clauses Literals |    Limit  Clauses Lit/Cl |          | Canonical Noncanon. |
=====================================================================================================
|       100 |    5650   320021 32349247 |     2000      100    198 |        0 |        10         0 |
|       421 |    5650   320192 32351051 |     2000      421     76 |        0 |        96       171 |
|      1287 |    5650   320833 32360951 |     2000     1287     40 |        0 |       262       812 |
|      1673 |    5650   320882 32361959 |     2000     1673     53 |        0 |       287       861 |
|      2237 |    5650   320940 32362816 |     3600     1237     28 |        0 |       310       919 |
|      3098 |    5650   321042 32364967 |     3600     2098     53 |        0 |       352      1021 |
|      4334 |    5650   321139 32366603 |     3600     3334     61 |        0 |       419      1118 |
|      6335 |    5650   321432 32370643 |     5001     3536     49 |        0 |       546      1411 |
|      9100 |    5650   321635 32373567 |     6306     3806     43 |        0 |       626      1614 |
|     13865 |    5650   322556 32387563 |     7555     5420     44 |        0 |       901      2535 |
|     21457 |    5650   324382 32410855 |    10001     4858     10 |        0 |      1356      4361 |
|     31015 |    5650   325291 32423029 |    11207     9422     49 |        0 |      1582      5270 |
|     45386 |    5650   326688 32443467 |    13606    11992     47 |        0 |      1787      6667 |
|     66082 |    5650   327923 32459176 |    17211    10493     30 |        0 |      2047      7902 |
|     96053 |    5650   328702 32471608 |    20806    12859     34 |        0 |      2339      8681 |
|    143867 |    5650   332727 32519872 |    25609    15476     35 |        0 |      3004     12706 |
=====================================================================================================
Number of solutions   : 0
Canonical subgraphs   : 3088           (10 /sec)
          order  3    : 1              (166667 /sec)
          order  4    : 1              (500000 /sec)
          order  5    : 1              (250000 /sec)
          order  6    : 1              (41667 /sec)
          order  7    : 1              (8264 /sec)
          order  8    : 2              (1363 /sec)
          order  9    : 6              (316 /sec)
          order 10    : 17             (70 /sec)
          order 11    : 74             (30 /sec)
          order 12    : 237            (17 /sec)
          order 13    : 524            (16 /sec)
          order 14    : 138            (20 /sec)
          order 15    : 1031           (16 /sec)
          order 16    : 445            (6 /sec)
          order 17    : 317            (5 /sec)
          order 18    : 239            (7 /sec)
          order 19    : 41             (10 /sec)
          order 20    : 8              (9 /sec)
          order 21    : 4              (14 /sec)
          order 22    : 0              (-nan /sec)
Noncanonical subgraphs: 13535          (116 /sec)
          order  3    : 0              (-nan /sec)
          order  4    : 0              (-nan /sec)
          order  5    : 0              (-nan /sec)
          order  6    : 0              (-nan /sec)
          order  7    : 0              (-nan /sec)
          order  8    : 0              (-nan /sec)
          order  9    : 0              (-nan /sec)
          order 10    : 0              (-nan /sec)
          order 11    : 0              (-nan /sec)
          order 12    : 0              (-nan /sec)
          order 13    : 1398           (6303 /sec)
          order 14    : 1833           (690 /sec)
          order 15    : 1132           (1060 /sec)
          order 16    : 8284           (89 /sec)
          order 17    : 366            (44 /sec)
          order 18    : 474            (48 /sec)
          order 19    : 44             (54 /sec)
          order 20    : 0              (-nan /sec)
          order 21    : 0              (-nan /sec)
Canonicity checking   : 305.281 s
Noncanonicity checking: 116.914 s
Total canonicity time : 422.195 s
database reductions   : 20
restarts              : 413
conflicts             : 154885         (299 /sec)
decisions             : 230574         (0.00 % random) (444 /sec)
propagations          : 7176028        (13831 /sec)
conflict literals     : 13436617       (55.08 % deleted)
actual reward         : 0.277701
Memory used           : 372.00 MB
CPU time              : 518.825 s

UNSATISFIABLE
